Maximize
  30 x_large + 15 x_small_art_pieces
Subject To
  c1: 4 x_large + 2 x_small_art_pieces <= 100
  c2: 3 x_large + 1 x_small_art_pieces <= 50
  c3: 5 x_large + 2 x_small_art_pieces <= 70
  c4: x_large >= 5
  c5: x_large >= 5
End